p edge 25 32
e 0 3
e 1 9
e 1 19
e 2 4
e 2 6
e 2 14
e 2 24
e 3 6
e 3 10
e 3 22
e 4 5
e 4 13
e 4 14
e 4 18
e 5 7
e 6 11
e 6 20
e 6 24
e 7 12
e 7 19
e 7 22
e 9 13
e 9 18
e 10 12
e 11 12
e 12 23
e 14 22
e 14 23
e 15 21
e 17 18
e 19 24
e 22 24
